language Essence 1.3

letting blksize_delta be
        function(1 --> 1, 2 --> 1, 3 --> 1, 4 --> 1, 5 --> 1, 6 --> 2, 7 --> 2, 8 --> 1, 9 --> 2, 10 --> 2, 11 --> 1,
                 12 --> 1, 13 --> 1, 14 --> 2, 15 --> 1, 16 --> 2, 17 --> 1, 18 --> 2, 19 --> 1, 20 --> 1, 21 --> 1,
                 22 --> 1, 23 --> 2, 24 --> 2, 25 --> 2, 26 --> 1, 27 --> 1, 28 --> 1, 29 --> 1, 30 --> 1, 31 --> 1,
                 32 --> 2, 33 --> 2, 34 --> 1, 35 --> 1, 36 --> 2, 37 --> 1, 38 --> 1, 39 --> 2, 40 --> 2, 41 --> 1,
                 42 --> 2, 43 --> 1, 44 --> 1, 45 --> 2, 46 --> 1, 47 --> 2, 48 --> 2, 49 --> 1, 50 --> 2, 51 --> 1,
                 52 --> 2, 53 --> 2, 54 --> 2, 55 --> 1, 56 --> 1, 57 --> 1, 58 --> 1, 59 --> 1, 60 --> 1, 61 --> 2,
                 62 --> 2, 63 --> 2, 64 --> 1, 65 --> 1, 66 --> 1, 67 --> 2, 68 --> 1, 69 --> 1, 70 --> 1)
letting maxcars be
        function(1 --> 3, 2 --> 8, 3 --> 4, 4 --> 8, 5 --> 6, 6 --> 4, 7 --> 5, 8 --> 3, 9 --> 5, 10 --> 3, 11 --> 6,
                 12 --> 5, 13 --> 3, 14 --> 6, 15 --> 4, 16 --> 4, 17 --> 3, 18 --> 3, 19 --> 7, 20 --> 4, 21 --> 8,
                 22 --> 4, 23 --> 6, 24 --> 6, 25 --> 3, 26 --> 5, 27 --> 5, 28 --> 6, 29 --> 4, 30 --> 6, 31 --> 4,
                 32 --> 6, 33 --> 5, 34 --> 7, 35 --> 7, 36 --> 4, 37 --> 4, 38 --> 3, 39 --> 7, 40 --> 7, 41 --> 8,
                 42 --> 3, 43 --> 5, 44 --> 3, 45 --> 8, 46 --> 4, 47 --> 7, 48 --> 5, 49 --> 8, 50 --> 6, 51 --> 8,
                 52 --> 7, 53 --> 5, 54 --> 5, 55 --> 7, 56 --> 8, 57 --> 8, 58 --> 8, 59 --> 8, 60 --> 4, 61 --> 4,
                 62 --> 6, 63 --> 3, 64 --> 6, 65 --> 5, 66 --> 8, 67 --> 8, 68 --> 4, 69 --> 4, 70 --> 4)
letting n_cars be 70
letting n_classes be 3
letting n_options be 70
letting quantity be function(1 --> 23, 2 --> 23, 3 --> 24)
letting usage be
        relation((1, 1), (1, 3), (1, 4), (1, 5), (1, 9), (1, 11), (1, 12), (1, 14), (1, 16), (1, 17), (1, 18), (1, 19),
                 (1, 20), (1, 21), (1, 23), (1, 25), (1, 26), (1, 27), (1, 28), (1, 29), (1, 30), (1, 31), (1, 32),
                 (1, 35), (1, 37), (1, 38), (1, 40), (1, 43), (1, 44), (1, 45), (1, 51), (1, 52), (1, 53), (1, 54),
                 (1, 55), (1, 56), (1, 58), (1, 59), (1, 62), (1, 65), (1, 68), (2, 8), (2, 10), (2, 11), (2, 13),
                 (2, 14), (2, 15), (2, 18), (2, 21), (2, 22), (2, 25), (2, 35), (2, 41), (2, 46), (2, 47), (2, 48),
                 (2, 49), (2, 51), (2, 52), (2, 53), (2, 54), (2, 59), (2, 61), (2, 62), (2, 63), (2, 64), (2, 66),
                 (2, 68), (2, 69), (2, 70), (3, 1), (3, 2), (3, 3), (3, 4), (3, 6), (3, 7), (3, 8), (3, 12), (3, 13),
                 (3, 16), (3, 20), (3, 22), (3, 24), (3, 28), (3, 32), (3, 33), (3, 34), (3, 35), (3, 36), (3, 37),
                 (3, 39), (3, 41), (3, 42), (3, 46), (3, 47), (3, 48), (3, 50), (3, 53), (3, 54), (3, 56), (3, 57),
                 (3, 58), (3, 60), (3, 61), (3, 65), (3, 66), (3, 67), (3, 68), (3, 70))
$ Visualisation for usage
$  1  1
$  1  3
$  1  4
$  1  5
$  1  9
$  1 11
$  1 12
$  1 14
$  1 16
$  1 17
$  1 18
$  1 19
$  1 20
$  1 21
$  1 23
$  1 25
$  1 26
$  1 27
$  1 28
$  1 29
$  1 30
$  1 31
$  1 32
$  1 35
$  1 37
$  1 38
$  1 40
$  1 43
$  1 44
$  1 45
$  1 51
$  1 52
$  1 53
$  1 54
$  1 55
$  1 56
$  1 58
$  1 59
$  1 62
$  1 65
$  1 68
$  2  8
$  2 10
$  2 11
$  2 13
$  2 14
$  2 15
$  2 18
$  2 21
$  2 22
$  2 25
$  2 35
$  2 41
$  2 46
$  2 47
$  2 48
$  2 49
$  2 51
$  2 52
$  2 53
$  2 54
$  2 59
$  2 61
$  2 62
$  2 63
$  2 64
$  2 66
$  2 68
$  2 69
$  2 70
$  3  1
$  3  2
$  3  3
$  3  4
$  3  6
$  3  7
$  3  8
$  3 12
$  3 13
$  3 16
$  3 20
$  3 22
$  3 24
$  3 28
$  3 32
$  3 33
$  3 34
$  3 35
$  3 36
$  3 37
$  3 39
$  3 41
$  3 42
$  3 46
$  3 47
$  3 48
$  3 50
$  3 53
$  3 54
$  3 56
$  3 57
$  3 58
$  3 60
$  3 61
$  3 65
$  3 66
$  3 67
$  3 68
$  3 70

